(set-logic QF_SLAH)

(declare-datatypes ((data_t 0)) (((c_data_t (sz Int)))))

(declare-heap (Int data_t))

(define-fun hck ((?x Int) (?y Int) (?v Int)) Bool
	(and
		(>= (- ?y ?x) 2) (<= (- ?y ?x) ?v)
		(sep (pto ?x (c_data_t (- ?y ?x))) (blk (+ ?x 1) ?y))
))

(define-fun-rec hls ((?x Int) (?y Int) (?v Int)) Bool
	(or
		(and (= ?x ?y) (_ emp Int data_t))
		(exists ((?w Int)) (sep (hck ?x ?w ?v) (hls ?w ?y ?v)))
))

(declare-const x0 Int)
(declare-const x1 Int)
(declare-const x2 Int)
(declare-const x3 Int)
(declare-const v2 Int)
(declare-const x4 Int)
(declare-const x5 Int)
(declare-const x6 Int)
(declare-const x7 Int)
(declare-const x8 Int)
(declare-const x9 Int)
(declare-const v8 Int)
(declare-const x10 Int)
(declare-const x11 Int)
(declare-const v10 Int)
(declare-const x12 Int)
(declare-const x13 Int)
(declare-const x14 Int)
(declare-const x15 Int)
(declare-const v14 Int)
(declare-const x16 Int)
(declare-const x17 Int)
(declare-const v16 Int)
(declare-const x18 Int)
(declare-const x19 Int)
(declare-const v18 Int)
(declare-const x20 Int)
(declare-const x21 Int)
(declare-const x22 Int)
(declare-const x23 Int)
(declare-const v22 Int)
(declare-const x24 Int)
(declare-const x25 Int)
(declare-const v24 Int)
(declare-const x26 Int)
(declare-const x27 Int)
(declare-const x28 Int)
(declare-const x29 Int)

(assert(and
(< x2 x8) (= x29 x17) (= x20 x17) 
(sep
(blk x0 x1)
(hls x2 x3 v2)
(blk x4 x5)
(pto x6 (c_data_t x7))
(hls x8 x9 v8)
(hls x10 x11 v10)
(pto x12 (c_data_t x13))
(hls x14 x15 v14)
(hls x16 x17 v16)
(hls x18 x19 v18)
(pto x20 (c_data_t x21))
(hls x22 x23 v22)
(hls x24 x25 v24)
(pto x26 (c_data_t x27))
(blk x28 x29)
)))

(assert(not(and
(< x2 x8) (= x29 x17) (= x20 x17) 
(sep
(blk x0 x2)
(hls x2 x3 v2)
(blk x4 x5)
(pto x6 (c_data_t x7))
(hls x8 x9 v8)
(hls x10 x11 v10)
(pto x12 (c_data_t x13))
(hls x14 x15 v14)
(hls x16 x17 v16)
(hls x18 x19 v18)
(pto x20 (c_data_t x21))
(hls x22 x23 v22)
(hls x24 x25 v24)
(pto x26 (c_data_t x27))
(blk x28 x29)
))))

(check-sat)